10	5
0	6	6	1	2	4	5	3
1	1	11
2	1	8
3	2	8	7
4	2	10	7
5	3	9	10	8
6	1	11
7	1	11
8	1	11
9	1	11
10	1	11
11	0
0	0	0	0	0	0	0
1	7	1	1	1	1	1
2	8	1	3	5	2	5
3	9	1	3	2	4	3
4	6	3	4	3	5	5
5	4	2	5	2	5	1
6	9	2	1	3	1	5
7	8	3	5	3	2	3
8	10	2	4	5	1	2
9	3	1	5	3	2	2
10	3	2	5	5	1	2
11	0	0	0	0	0	0
3	5	5	5	5
